
  25    0


   0  14 2 3 4 5 6 7 8 9 10 11 12 22 23 24 
   6   5 18 17 16 14 13 
   1   3 21 15 13 
   6   3 20 15 13 
   1   3 19 14 13 
   4   2 18 17 
   5   2 16 13 
   7   2 15 13 
   8   2 15 13 
   2   1 14 
   2   1 14 
   5   1 13 
   2   1 25
   8   1 25
   8   1 25
   2   1 25
   3   1 25
   7   1 25
   7   1 25
   8   1 25
   5   1 25
   5   1 25
  10   1 25
   3   1 25
   0   0 
